NAME : eilB101.66.982.tour
COMMENT : Length = 982
COMMENT : Found by LKH [Keld Helsgaun] Mon Dec 10 23:59:53 2018
TYPE : TOUR
DIMENSION : 109
TOUR_SECTION
1
8
83
48
20
12
63
11
64
91
31
70
28
104
93
99
101
92
17
45
39
15
44
16
58
43
88
105
54
41
5
56
26
68
24
57
40
76
73
22
103
59
74
75
23
42
3
96
95
108
29
27
77
78
69
81
30
25
55
13
102
90
6
62
87
18
84
9
47
46
85
61
109
2
51
80
35
36
66
72
21
67
10
52
34
82
79
4
106
53
89
32
71
33
65
50
37
49
19
107
14
98
60
38
86
94
100
97
7
-1
EOF
